Route #1: 170 79 148 87 126 138 152 175 49 55 127 182 42 153 88 187 147 178 124 53 72 102 48 6 177 13 25 98 144 96
Route #2: 93 145 69 131 57 9 101 43 91 77 41 33 62 181 154 85 19 186 71 142 99 149 168 137 184 26 65 189
Route #3: 11 44 59 29 139 86 105 90 110 36 7 3 39 78 23 37 40 31 151 81 113 74 169
Route #4: 106 20 58 64 67 172 14 121 111 5 164 129 35 104 109 130 157 134 73 140 150 46 100 32 119 132
Route #5: 38 30 84 183 161 185 2 166 89 45 128 173
Route #6: 136 56 92 10 115 66 21 54 155 190 141 125 188 28 16 4 97 60 63 180 47
Route #7: 171 167 158 174 133 135 162 75 112 24 165 70 179 22 51 95 116 146 82 143 160 103
Route #8: 107 120 50 27 118 176 12 123 83 117 61 80 18 156 8 163 34 108 114 159 122 76 94 52 68 17 15
